
        $ From http://www.csplib.org/Problems/prob009/data/helmut.pdf
        $ Problem number 31
        $ Sequence length : 24
        language ESSENCE' 1.0
        letting sizemaster be 253
        letting sizes be sequence(2,4,5,9,13,18,20,23,24,27,28,31,38,40,44,50,61,70,72,77,79,86,88,104)
        